************************************************************************
file with basedata            : mm18_.bas
initial value random generator: 2008399954
************************************************************************
projects                      :  1
jobs (incl. supersource/sink ):  12
horizon                       :  85
RESOURCES
  - renewable                 :  2   R
  - nonrenewable              :  2   N
  - doubly constrained        :  0   D
************************************************************************
PROJECT INFORMATION:
pronr.  #jobs rel.date duedate tardcost  MPM-Time
    1     10      0       18        3       18
************************************************************************
PRECEDENCE RELATIONS:
jobnr.    #modes  #successors   successors
   1        1          3           2   3   4
   2        3          2           6   8
   3        3          2           7   9
   4        3          2           5  10
   5        3          2           7   9
   6        3          2           9  10
   7        3          1           8
   8        3          1          11
   9        3          1          12
  10        3          1          12
  11        3          1          12
  12        1          0        
************************************************************************
REQUESTS/DURATIONS:
jobnr. mode duration  R 1  R 2  N 1  N 2
------------------------------------------------------------------------
  1      1     0       0    0    0    0
  2      1     2       9    0    0    9
         2     3       4    0    2    0
         3     3       7    0    1    0
  3      1     2       0    8    5    0
         2     8       0    8    4    0
         3    10       5    0    4    0
  4      1     2       6    0   10    0
         2     9       0    8    2    0
         3    10       0    7    0    9
  5      1     8       0    6    9    0
         2     9       7    0    0    7
         3    10       3    0    0    7
  6      1     3       0    3    0   10
         2     7       0    2    0    9
         3    10       9    0    0    9
  7      1     2       9    0    0    6
         2     7       7    0    8    0
         3     9       6    0    0    5
  8      1     2       6    0    0    6
         2     5       5    0    8    0
         3     9       0    4    2    0
  9      1     2       0   10    0   10
         2     7       1    0    0    8
         3     7       0   10    0    8
 10      1     5       0    9    0    3
         2     5      10    0    6    0
         3     7       0    9    4    0
 11      1     4       0    8    2    0
         2     6       6    0    0    6
         3    10       0    6    0    6
 12      1     0       0    0    0    0
************************************************************************
RESOURCEAVAILABILITIES:
  R 1  R 2  N 1  N 2
   17   11   27   42
************************************************************************
MAXIMAL LAGS:
from  to  type  delay
    1   12   ES      0
    1    2   ES      0
    2   12   ES      0
    1    3   ES      0
    3   12   ES      0
    1    4   ES      0
    4   12   ES      0
    1    5   ES      0
    5   12   ES      0
    1    6   ES      0
    6   12   ES      0
    1    7   ES      0
    7   12   ES      0
    1    8   ES      0
    8   12   ES      0
    1    9   ES      0
    9   12   ES      0
    1   10   ES      0
   10   12   ES      0
    1   11   ES      0
   11   12   ES      0
    1   12   ES      0
    2    6   SS     11
    2    6   SE      8
    2    6   ES      3
    2    6   EE      7
    2    8   SS      7
    2    8   SE     -6
    2    8   ES      2
    2    8   EE     -9
    3    7   SS     -8
    3    7   SE     -3
    3    7   ES    -12
    3    7   EE      0
    3    9   SS     -2
    3    9   SE      7
    9    3   SE      0
    3    9   ES      0
    3    9   EE     -2
    4    5   SS      2
    4    5   SE     -2
    4    5   ES      1
    4    5   EE      8
    4   10   SS      7
    4   10   SE     -8
    4   10   ES     -3
    4   10   EE     -2
    5    7   SS      7
    5    7   SE     10
    5    7   ES     -6
    5    7   EE      3
    5    9   SS     -2
    5    9   SE     -7
    5    9   ES      0
    5    9   EE     -2
    6    9   SS     -3
    6    9   SE     11
    6    9   ES     10
    6    9   EE      8
    6   10   SS      3
    6   10   SE      6
    6   10   ES     -5
    6   10   EE     -2
    7    8   SS      0
    7    8   SE     -4
    7    8   ES      0
    7    8   EE     -1
    8   11   SS     -9
    8   11   SE      6
    8   11   ES     -6
    8   11   EE      6
************************************************************************
